%chk=frag1_point1.chk

%nproc=4
%mem=6553MB
#P RwB97XD/6-311G(d,p)int(grid=ultrafine) scf

frag1_point1

0 1
H   -0.148481   1.768265   2.029529
H   -0.001172   2.055472   3.747670
H   0.857104   0.699535   3.021682
C   0.558202   1.738849   2.863126
C   1.761169   2.639859   2.616055
H   1.452863   3.672415   2.428231
H   2.435327   2.650166   3.476427
H   2.339193   2.313914   1.747108

