%chk=frag1_point2.chk

%nproc=4
%mem=4298MB
#P RwB97XD/6-311G(d,p)int(grid=ultrafine) scf

frag1_point2

0 1
H   -0.149507   1.764804   2.023226
H   -0.008495   2.061402   3.739996
H   0.851006   0.700172   3.024405
C   0.553909   1.739136   2.859432
C   1.758468   2.637805   2.611672
H   1.450874   3.668037   2.410859
H   2.425780   2.657607   3.476695
H   2.343355   2.303386   1.750688

